Academic license - for non-commercial use only - expires 2022-11-10
Using license file /home/benedond/Apps/gurobi/gurobi950/gurobi.lic
Using gurobi.env file
Set parameter Threads to value 1
Changed value of parameter TimeLimit to 1200.0
   Prev: inf  Min: 0.0  Max: inf  Default: inf
Gurobi Optimizer version 9.1.2 build v9.1.2rc0 (linux64)
Thread count: 2 physical cores, 4 logical processors, using up to 1 threads
Optimize a model with 1854 rows, 1713 columns and 8239 nonzeros
Model fingerprint: 0x2e5800d9
Variable types: 56 continuous, 1657 integer (1657 binary)
Coefficient statistics:
  Matrix range     [2e-01, 4e+02]
  Objective range  [6e-03, 4e-01]
  Bounds range     [1e+00, 1e+00]
  RHS range        [1e+00, 1e+03]
Presolve removed 203 rows and 103 columns
Presolve time: 0.04s
Presolved: 1651 rows, 1610 columns, 7639 nonzeros
Variable types: 55 continuous, 1555 integer (1555 binary)

Root relaxation: objective 2.461973e+00, 1721 iterations, 0.04 seconds

    Nodes    |    Current Node    |     Objective Bounds      |     Work
 Expl Unexpl |  Obj  Depth IntInf | Incumbent    BestBd   Gap | It/Node Time

     0     0    2.46197    0  123          -    2.46197      -     -    0s
     0     0    2.60198    0  134          -    2.60198      -     -    0s
     0     0    2.60378    0  115          -    2.60378      -     -    0s
     0     0    2.72141    0  129          -    2.72141      -     -    0s
     0     0    2.75292    0  153          -    2.75292      -     -    0s
     0     0    2.82924    0  118          -    2.82924      -     -    0s
H    0     0                       4.9903833    2.82924  43.3%     -    0s
H    0     0                       3.9990083    2.82924  29.3%     -    0s
H    0     0                       3.7794667    2.82924  25.1%     -    0s
     0     0    2.85302    0  127    3.77947    2.85302  24.5%     -    0s
     0     0    2.85515    0  103    3.77947    2.85515  24.5%     -    0s
     0     0    2.85539    0  107    3.77947    2.85539  24.4%     -    0s
     0     0    2.85539    0  108    3.77947    2.85539  24.4%     -    0s
     0     0    2.88556    0  124    3.77947    2.88556  23.7%     -    0s
     0     0    2.89495    0  124    3.77947    2.89495  23.4%     -    0s
     0     0    2.89822    0  137    3.77947    2.89822  23.3%     -    0s
     0     0    2.90245    0  106    3.77947    2.90245  23.2%     -    0s
     0     0    2.90359    0  131    3.77947    2.90359  23.2%     -    0s
     0     0    2.90364    0  110    3.77947    2.90364  23.2%     -    0s
     0     0    2.91126    0  154    3.77947    2.91126  23.0%     -    0s
     0     0    2.91334    0  153    3.77947    2.91334  22.9%     -    0s
     0     0    2.91361    0  168    3.77947    2.91361  22.9%     -    0s
     0     0    2.91384    0  160    3.77947    2.91384  22.9%     -    0s
     0     0    2.91896    0  155    3.77947    2.91896  22.8%     -    0s
H    0     0                       3.6279000    2.91896  19.5%     -    0s
     0     0    2.92017    0  165    3.62790    2.92017  19.5%     -    0s
     0     0    2.92035    0  180    3.62790    2.92035  19.5%     -    0s
     0     0    2.92574    0  152    3.62790    2.92574  19.4%     -    0s
     0     0    2.92716    0  160    3.62790    2.92716  19.3%     -    0s
     0     0    2.92741    0  150    3.62790    2.92741  19.3%     -    0s
     0     0    2.93155    0  147    3.62790    2.93155  19.2%     -    0s
H    0     0                       3.6081083    2.93155  18.8%     -    0s
     0     0    2.93314    0  153    3.60811    2.93314  18.7%     -    0s
     0     0    2.93346    0  142    3.60811    2.93346  18.7%     -    0s
     0     0    2.93376    0  169    3.60811    2.93376  18.7%     -    0s
     0     0    2.93711    0  142    3.60811    2.93711  18.6%     -    0s
H    0     0                       3.6027583    2.93711  18.5%     -    0s
     0     0    2.93785    0  127    3.60276    2.93785  18.5%     -    0s
     0     0    2.93785    0  128    3.60276    2.93785  18.5%     -    0s
     0     0    2.94098    0  140    3.60276    2.94098  18.4%     -    1s
H    0     0                       3.4414083    2.94098  14.5%     -    1s
     0     0    2.94194    0  134    3.44141    2.94194  14.5%     -    1s
     0     0    2.94264    0  139    3.44141    2.94264  14.5%     -    1s
     0     0    2.94302    0  139    3.44141    2.94302  14.5%     -    1s
     0     0    2.94311    0  139    3.44141    2.94311  14.5%     -    1s
     0     0    2.94837    0  135    3.44141    2.94837  14.3%     -    1s
     0     0    2.95070    0  190    3.44141    2.95070  14.3%     -    1s
     0     0    2.95138    0  175    3.44141    2.95138  14.2%     -    1s
     0     0    2.95190    0  131    3.44141    2.95190  14.2%     -    1s
     0     0    2.95194    0  166    3.44141    2.95194  14.2%     -    1s
     0     0    2.95397    0  149    3.44141    2.95397  14.2%     -    1s
     0     0    2.95521    0  163    3.44141    2.95521  14.1%     -    1s
     0     0    2.95631    0  169    3.44141    2.95631  14.1%     -    1s
     0     0    2.95647    0  179    3.44141    2.95647  14.1%     -    1s
     0     0    2.95777    0  152    3.44141    2.95777  14.1%     -    1s
     0     0    2.95782    0  154    3.44141    2.95782  14.1%     -    1s
     0     0    2.95814    0  121    3.44141    2.95814  14.0%     -    1s
H    0     0                       3.4345583    2.95814  13.9%     -    1s
     0     0    2.95821    0  149    3.43456    2.95821  13.9%     -    1s
     0     0    2.95851    0  142    3.43456    2.95851  13.9%     -    1s
     0     0    2.95851    0  140    3.43456    2.95851  13.9%     -    1s
H    0     0                       3.3403167    2.95851  11.4%     -    1s
     0     2    2.95980    0  137    3.34032    2.95980  11.4%     -    1s
H   26    22                       3.3209167    2.98708  10.1%   178    2s
H   63    45                       3.3093750    2.99119  9.61%   139    2s
H  174   134                       3.3063083    2.99934  9.28%   107    3s
   366   264    3.27689    4   82    3.30631    3.00265  9.18%  96.2    5s
   586   408    3.28847   86  234    3.30631    3.04679  7.85%  85.9   10s
   682   452    3.14706   57   66    3.30631    3.06844  7.19%   116   15s
H  957   468                       3.2865916    3.07178  6.54%   126   18s
  1027   488    3.13949   24  142    3.28659    3.08158  6.24%   127   20s
* 1175   491              34       3.2724000    3.08642  5.68%   123   21s
H 1258   505                       3.2715750    3.09160  5.50%   119   21s
  1784   738    3.17154   64  116    3.27157    3.09930  5.27%   105   25s
* 2631  1207              81       3.2620750    3.10697  4.75%  96.7   29s
  2641  1208    3.23318   39   54    3.26207    3.10712  4.75%  96.6   30s
* 3416  1498              55       3.2490417    3.11261  4.20%  90.9   34s
* 3629  1410              62       3.2323167    3.11351  3.68%  88.5   34s
  3671  1413    3.12780   34   59    3.23232    3.11455  3.64%  88.1   35s
H 4031  1354                       3.2192333    3.11763  3.16%  85.4   36s
H 4063   890                       3.1851750    3.11791  2.11%  85.3   36s
  4634   929    3.13419   29   70    3.18517    3.12833  1.78%  85.2   40s
  5462   954     cutoff   28         3.18517    3.13860  1.46%  82.5   45s
  6850   813     cutoff   42         3.18517    3.15372  0.99%  76.7   50s
* 7873   201              41       3.1811000    3.17240  0.27%  73.5   53s

Cutting planes:
  Gomory: 2
  Cover: 84
  Implied bound: 18
  Projected implied bound: 1
  Clique: 6
  MIR: 234
  StrongCG: 1
  Flow cover: 322
  GUB cover: 1
  Inf proof: 1
  RLT: 15
  Relax-and-lift: 153

Explored 8094 nodes (593197 simplex iterations) in 54.23 seconds
Thread count was 1 (of 4 available processors)

Solution count 10: 3.1811 3.18517 3.21923 ... 3.30631

Optimal solution found (tolerance 1.00e-04)
Best objective 3.181099993711e+00, best bound 3.180838144536e+00, gap 0.0082%
